51
100
70	27
69	19
68	11
67	13
66	18
65	18
64	17
63	22
62	18
61	27
60	16
59	22
58	13
57	20
56	23
55	25
54	21
53	23
52	23
51	18
50	28
49	16
48	13
47	30
46	15
45	30
44	30
43	24
42	18
41	9
40	20
39	19
38	25
37	22
36	20
35	20
34	21
33	13
32	17
31	17
30	18
29	24
28	22
27	16
26	17
25	14
24	22
23	17
22	11
21	18
20	20
